Version identifier: 22.1.0.0 | 2022-03-09 | 1a383f8ce
CPXPARAM_Threads                                 1
CPXPARAM_MIP_Strategy_VariableSelect             3
CPXPARAM_TimeLimit                               599.99998308099998
1 of 1 MIP starts provided solutions.
MIP start 'm1' defined initial solution with objective 3.0000.
Tried aggregator 2 times.
MIP Presolve eliminated 41 rows and 1 columns.
MIP Presolve added 28 rows and 7 columns.
MIP Presolve modified 160 coefficients.
Aggregator did 7 substitutions.
Reduced MIP has 901 rows, 2100 columns, and 24679 nonzeros.
Reduced MIP has 2100 binaries, 0 generals, 0 SOSs, and 0 indicators.
Presolve time = 0.05 sec. (59.47 ticks)
Probing time = 0.01 sec. (7.11 ticks)
Tried aggregator 1 time.
Detecting symmetries...
MIP Presolve modified 14 coefficients.
Reduced MIP has 901 rows, 2100 columns, and 25020 nonzeros.
Reduced MIP has 2100 binaries, 0 generals, 0 SOSs, and 0 indicators.
Presolve time = 0.03 sec. (29.05 ticks)
Probing time = 0.01 sec. (7.15 ticks)
Clique table members: 785.
MIP emphasis: balance optimality and feasibility.
MIP search method: dynamic search.
Parallel mode: none, using 1 thread.
Root relaxation solution time = 0.14 sec. (140.06 ticks)

        Nodes                                         Cuts/
   Node  Left     Objective  IInf  Best Integer    Best Bound    ItCnt     Gap

*     0+    0                            3.0000     5050.0000              --- 
      0     0      100.0000   388        3.0000      100.0000     1502     --- 
      0     0      100.0000   199        3.0000    Cliques: 7     1751     --- 
      0     0      100.0000   381        3.0000      Cuts: 88     2778     --- 
      0     0      100.0000   121        3.0000    Cliques: 3     2982     --- 
*     0+    0                           88.0000      100.0000            13.64%
      0     0        cutoff             88.0000      100.0000     2982   13.64%
      0     0      100.0000   276       88.0000      Cuts: 51     3429   13.64%
*     0+    0                           94.0000      100.0000             6.38%
      0     0        cutoff             94.0000      100.0000     3429    6.38%
Detecting symmetries...
      0     2      100.0000   129       94.0000      100.0000     3429    6.38%
Elapsed time = 3.77 sec. (3658.84 ticks, tree = 0.01 MB, solutions = 3)
      1     3      100.0000   237       94.0000      100.0000     7088    6.38%
      3     5      100.0000   162       94.0000      100.0000     8201    6.38%
      5     7      100.0000   216       94.0000      100.0000     9360    6.38%
      8    10      100.0000   107       94.0000      100.0000    10107    6.38%
     11    13      100.0000   203       94.0000      100.0000    11932    6.38%
     13    15      100.0000   190       94.0000      100.0000    12999    6.38%
     15    17      100.0000   209       94.0000      100.0000    14182    6.38%
     18    20      100.0000   210       94.0000      100.0000    15043    6.38%
     20    22      100.0000   206       94.0000      100.0000    15621    6.38%
     28    30      100.0000   195       94.0000      100.0000    19041    6.38%
Elapsed time = 7.54 sec. (7367.21 ticks, tree = 0.18 MB, solutions = 3)
     32    34      100.0000   174       94.0000      100.0000    19808    6.38%
     41    43      100.0000   150       94.0000      100.0000    23047    6.38%
     53    55      100.0000   232       94.0000      100.0000    25916    6.38%
     64    66      100.0000   155       94.0000      100.0000    29415    6.38%
     74    76      100.0000   148       94.0000      100.0000    31465    6.38%
     86    88      100.0000   152       94.0000      100.0000    33911    6.38%
     97    99      100.0000   185       94.0000      100.0000    36704    6.38%
    109   111      100.0000   149       94.0000      100.0000    39598    6.38%
    120   122      100.0000   193       94.0000      100.0000    43311    6.38%
    133   135      100.0000   165       94.0000      100.0000    47872    6.38%
Elapsed time = 17.99 sec. (17340.21 ticks, tree = 1.00 MB, solutions = 3)
    148   150      100.0000    96       94.0000      100.0000    51403    6.38%
    166   164       99.0000   151       94.0000      100.0000    57252    6.38%
    185   180       99.0000   145       94.0000      100.0000    60267    6.38%
    211   190      100.0000   148       94.0000      100.0000    65506    6.38%
    226   205      100.0000   126       94.0000      100.0000    68901    6.38%
    243   220      100.0000   150       94.0000      100.0000    73486    6.38%
    264   230       99.0000   169       94.0000      100.0000    78261    6.38%
    288   237      100.0000   193       94.0000      100.0000    83113    6.38%
    304   249       99.0000    66       94.0000      100.0000    87811    6.38%
    321   261       99.0000   124       94.0000      100.0000    92853    6.38%
Elapsed time = 28.90 sec. (27223.70 ticks, tree = 2.05 MB, solutions = 3)
    339   271      100.0000   160       94.0000      100.0000    97056    6.38%
    359   289      100.0000    65       94.0000      100.0000   100929    6.38%
    390   296       99.8811   112       94.0000      100.0000   106635    6.38%
    428   302       99.0000    65       94.0000      100.0000   112954    6.38%
    462   308       99.0000   135       94.0000      100.0000   120244    6.38%
    494   318       99.0000    93       94.0000      100.0000   124984    6.38%
    531   319      100.0000    28       94.0000      100.0000   129635    6.38%
    566   329      100.0000    71       94.0000      100.0000   135586    6.38%
    601   335       99.0000   129       94.0000      100.0000   141633    6.38%
    632   343       99.0000   115       94.0000      100.0000   146751    6.38%
Elapsed time = 39.69 sec. (36983.84 ticks, tree = 2.73 MB, solutions = 3)
    658   358       99.0000   111       94.0000      100.0000   150640    6.38%
    697   358       99.0000    63       94.0000      100.0000   156829    6.38%
    732   361      100.0000    80       94.0000      100.0000   162614    6.38%
    764   365       98.8406    69       94.0000      100.0000   169442    6.38%
    801   370      100.0000    49       94.0000      100.0000   175293    6.38%
    835   374      100.0000    40       94.0000      100.0000   182772    6.38%
    873   377       99.0000   100       94.0000      100.0000   189309    6.38%
    912   377    infeasible             94.0000      100.0000   194927    6.38%
    949   382       99.0000   107       94.0000      100.0000   200601    6.38%
    980   388       99.0000    82       94.0000      100.0000   206192    6.38%
Elapsed time = 50.40 sec. (46697.40 ticks, tree = 3.11 MB, solutions = 3)
   1000   394       99.0000    65       94.0000      100.0000   209683    6.38%
   1038   398       99.0000   112       94.0000      100.0000   215520    6.38%
   1075   400    infeasible             94.0000      100.0000   221556    6.38%
   1099   414      100.0000    69       94.0000      100.0000   226655    6.38%
   1132   420      100.0000    90       94.0000      100.0000   233203    6.38%
   1158   426       99.0000    46       94.0000      100.0000   240215    6.38%
   1194   427      100.0000   116       94.0000      100.0000   246482    6.38%
   1219   445       99.0000    61       94.0000      100.0000   251520    6.38%
   1251   451       99.0000    56       94.0000      100.0000   257266    6.38%
   1287   452       99.0000    55       94.0000      100.0000   264120    6.38%
Elapsed time = 61.82 sec. (56968.56 ticks, tree = 3.64 MB, solutions = 3)
   1324   452      100.0000    96       94.0000      100.0000   270064    6.38%
   1360   459       99.0000    88       94.0000      100.0000   276547    6.38%
   1392   464       99.0000   101       94.0000      100.0000   282446    6.38%
   1424   469       99.0000   123       94.0000      100.0000   288556    6.38%
   1452   475       99.0000    90       94.0000      100.0000   293874    6.38%
   1480   485      100.0000    66       94.0000      100.0000   298639    6.38%
   1519   486      100.0000    63       94.0000      100.0000   306026    6.38%
   1562   488       99.0000    57       94.0000      100.0000   312679    6.38%
   1607   491      100.0000    81       94.0000      100.0000   318443    6.38%
   1648   492      100.0000    51       94.0000      100.0000   325360    6.38%
Elapsed time = 72.52 sec. (66715.64 ticks, tree = 3.97 MB, solutions = 3)
   1685   493       99.0000    26       94.0000      100.0000   333281    6.38%
   1722   497       99.0000   106       94.0000      100.0000   339612    6.38%
   1749   508       99.0000    83       94.0000      100.0000   344518    6.38%
   1781   511       99.0000    93       94.0000      100.0000   351528    6.38%
   1810   520       99.0000    91       94.0000      100.0000   356590    6.38%
   1842   527       99.0000   108       94.0000      100.0000   362920    6.38%
   1873   533       99.0000   102       94.0000      100.0000   368821    6.38%
   1908   538      100.0000    92       94.0000      100.0000   375398    6.38%
*  1920   264      integral     0       99.0000      100.0000   376343    1.01%
   1936   269      100.0000    77       99.0000      100.0000   379915    1.01%
   1965   271      100.0000   102       99.0000      100.0000   388657    1.01%
Elapsed time = 83.42 sec. (76463.11 ticks, tree = 2.16 MB, solutions = 4)
   1996   274      100.0000    91       99.0000      100.0000   396456    1.01%
   2021   276      100.0000   100       99.0000      100.0000   404157    1.01%

Performing restart 1

Repeating presolve.
Tried aggregator 1 time.
MIP Presolve eliminated 1 rows and 100 columns.
Reduced MIP has 900 rows, 2000 columns, and 17720 nonzeros.
Reduced MIP has 2000 binaries, 0 generals, 0 SOSs, and 0 indicators.
Presolve time = 0.01 sec. (10.94 ticks)
Tried aggregator 1 time.
Reduced MIP has 900 rows, 2000 columns, and 17720 nonzeros.
Reduced MIP has 2000 binaries, 0 generals, 0 SOSs, and 0 indicators.
Presolve time = 0.01 sec. (13.24 ticks)
Represolve time = 0.13 sec. (73.14 ticks)
   2030     0      100.0000   181       99.0000    Cliques: 2   408706    1.01%
   2030     0      100.0000   365       99.0000     Cuts: 199   410086    1.01%
   2030     2      100.0000   175       99.0000      100.0000   410086    1.01%
   2036     8      100.0000   165       99.0000      100.0000   414906    1.01%
   2046    18      100.0000   299       99.0000      100.0000   420141    1.01%
   2058    30      100.0000   269       99.0000      100.0000   421880    1.01%
   2070    42      100.0000   234       99.0000      100.0000   424746    1.01%
   2084    56      100.0000   243       99.0000      100.0000   427390    1.01%
   2098    70      100.0000   255       99.0000      100.0000   430686    1.01%
   2109    81      100.0000   268       99.0000      100.0000   432763    1.01%
Elapsed time = 101.37 sec. (93448.99 ticks, tree = 0.53 MB, solutions = 4)
   2120    92      100.0000   233       99.0000      100.0000   435022    1.01%
   2130   102      100.0000   222       99.0000      100.0000   436622    1.01%
   2145   117      100.0000   240       99.0000      100.0000   438918    1.01%
   2164   134      100.0000   169       99.0000      100.0000   442450    1.01%
   2190   138      100.0000   184       99.0000      100.0000   447969    1.01%
   2221   139      100.0000   201       99.0000      100.0000   453687    1.01%
   2252   137      100.0000   181       99.0000      100.0000   459837    1.01%
   2281   140      100.0000   164       99.0000      100.0000   466819    1.01%
   2313   141      100.0000   158       99.0000      100.0000   473427    1.01%
   2432   147    infeasible             99.0000      100.0000   498841    1.01%
Elapsed time = 115.16 sec. (106252.37 ticks, tree = 1.07 MB, solutions = 4)
   2557   148      100.0000   211       99.0000      100.0000   520031    1.01%
   2680   159      100.0000   182       99.0000      100.0000   540813    1.01%
   2804   175      100.0000   149       99.0000      100.0000   561957    1.01%
   2942   174    infeasible             99.0000      100.0000   582581    1.01%
   3071   183      100.0000   139       99.0000      100.0000   605605    1.01%
   3206   188      100.0000   187       99.0000      100.0000   626576    1.01%
   3334   202      100.0000   171       99.0000      100.0000   646459    1.01%
   3475   202      100.0000   170       99.0000      100.0000   666033    1.01%
   3605   200      100.0000   172       99.0000      100.0000   688016    1.01%
   3745   202      100.0000   161       99.0000      100.0000   709445    1.01%
Elapsed time = 156.99 sec. (144626.09 ticks, tree = 1.50 MB, solutions = 4)
   3894   204      100.0000   126       99.0000      100.0000   727577    1.01%
   4060   201      100.0000   136       99.0000      100.0000   746590    1.01%
   4210   207      100.0000   107       99.0000      100.0000   766645    1.01%
   4358   203    infeasible             99.0000      100.0000   788106    1.01%
   4491   204      100.0000   165       99.0000      100.0000   812372    1.01%
   4617   217      100.0000   196       99.0000      100.0000   831962    1.01%
   4718   241      100.0000   184       99.0000      100.0000   851967    1.01%
   4830   244      100.0000   211       99.0000      100.0000   879540    1.01%
   4968   242      100.0000   173       99.0000      100.0000   900779    1.01%
   5102   245      100.0000   171       99.0000      100.0000   922634    1.01%
Elapsed time = 198.72 sec. (182935.75 ticks, tree = 1.86 MB, solutions = 4)
   5241   245      100.0000   155       99.0000      100.0000   945400    1.01%
   5388   244      100.0000   131       99.0000      100.0000   965700    1.01%
   5523   242      100.0000   160       99.0000      100.0000   987036    1.01%
   5660   242    infeasible             99.0000      100.0000  1007552    1.01%
   5783   247      100.0000   155       99.0000      100.0000  1033771    1.01%
   5922   250      100.0000   147       99.0000      100.0000  1055938    1.01%
   6055   255      100.0000   152       99.0000      100.0000  1078357    1.01%
   6180   275      100.0000   150       99.0000      100.0000  1098762    1.01%
   6303   283      100.0000   155       99.0000      100.0000  1121281    1.01%
   6436   283      100.0000   151       99.0000      100.0000  1141961    1.01%
Elapsed time = 240.51 sec. (221295.18 ticks, tree = 2.19 MB, solutions = 4)
   6577   287      100.0000   144       99.0000      100.0000  1162539    1.01%
   6719   277      100.0000   161       99.0000      100.0000  1186252    1.01%
   6847   281      100.0000   102       99.0000      100.0000  1208785    1.01%
   6968   280      100.0000   169       99.0000      100.0000  1236690    1.01%
   7092   297      100.0000   186       99.0000      100.0000  1253034    1.01%
   7214   308      100.0000   170       99.0000      100.0000  1277051    1.01%
   7337   312      100.0000   162       99.0000      100.0000  1303503    1.01%
   7474   317      100.0000   149       99.0000      100.0000  1323895    1.01%
   7620   324      100.0000   146       99.0000      100.0000  1350027    1.01%
   7771   319      100.0000   119       99.0000      100.0000  1376822    1.01%
Elapsed time = 282.61 sec. (259679.27 ticks, tree = 2.49 MB, solutions = 4)
   7917   316    infeasible             99.0000      100.0000  1399153    1.01%
   8049   313      100.0000   161       99.0000      100.0000  1423516    1.01%
   8178   313    infeasible             99.0000      100.0000  1446736    1.01%
   8318   308      100.0000   172       99.0000      100.0000  1468499    1.01%
   8446   311      100.0000   151       99.0000      100.0000  1489168    1.01%
   8580   314      100.0000   150       99.0000      100.0000  1512464    1.01%
   8723   320      100.0000   150       99.0000      100.0000  1536219    1.01%
   8865   310      100.0000   148       99.0000      100.0000  1562413    1.01%
   9008   311    infeasible             99.0000      100.0000  1581988    1.01%
   9136   322      100.0000    50       99.0000      100.0000  1603008    1.01%
Elapsed time = 324.74 sec. (297971.95 ticks, tree = 2.51 MB, solutions = 4)
   9269   321      100.0000   176       99.0000      100.0000  1627034    1.01%
   9401   325      100.0000   152       99.0000      100.0000  1651721    1.01%
   9539   327      100.0000   150       99.0000      100.0000  1672848    1.01%
   9686   327      100.0000   155       99.0000      100.0000  1697607    1.01%
   9835   325    infeasible             99.0000      100.0000  1716849    1.01%
   9964   325      100.0000   149       99.0000      100.0000  1741520    1.01%
  10103   324      100.0000   168       99.0000      100.0000  1765808    1.01%
  10244   326      100.0000   158       99.0000      100.0000  1786307    1.01%
  10375   323      100.0000   180       99.0000      100.0000  1809560    1.01%
  10524   325      100.0000   116       99.0000      100.0000  1829404    1.01%
Elapsed time = 366.91 sec. (336346.10 ticks, tree = 2.54 MB, solutions = 4)
  10688   330      100.0000   175       99.0000      100.0000  1846100    1.01%
  10847   335      100.0000   133       99.0000      100.0000  1865177    1.01%
  11016   327      100.0000   151       99.0000      100.0000  1883524    1.01%
  11178   324      100.0000   145       99.0000      100.0000  1901951    1.01%
  11327   324      100.0000   133       99.0000      100.0000  1921244    1.01%
  11466   325      100.0000   109       99.0000      100.0000  1942687    1.01%
  11621   331      100.0000    90       99.0000      100.0000  1963375    1.01%
* 11630+    0                          100.0000      100.0000             0.00%

Clique cuts applied:  44
Cover cuts applied:  1
Mixed integer rounding cuts applied:  1
Zero-half cuts applied:  3

Root node processing (before b&c):
  Real time             =    3.76 sec. (3650.44 ticks)
Sequential b&c:
  Real time             =  398.79 sec. (365414.44 ticks)
                          ------------
Total (root+branch&cut) =  402.55 sec. (369064.88 ticks)
Primal:	100
Dual:	100
Status:	Optimal
Time:	402.56
Sequence:
	5
	12
	3
	10
	12
	11
	4
	0
	19
	11
	4
	17
	19
	6
	5
	12
	8
	16
	19
	0
	8
	15
	11
	3
	19
	13
	4
	0
	11
	16
	12
	18
	9
	1
	14
	17
	15
	11
	3
	10
	12
	8
	9
	1
	14
	7
	1
	3
	7
	19
	4
	9
	19
	8
	16
	0
	2
	16
	7
	8
	1
	9
	14
	15
	17
	6
	2
	16
	11
	2
	16
	0
	2
	16
	11
	6
	17
	4
	19
	9
	10
	2
	13
	5
	12
	3
	10
	19
	18
	9
	13
	15
	18
	9
	1
	14
	7
	11
	3
	15
